(set-logic QF_UF)
(declare-fun A0 () Bool)
(declare-fun A1 () Bool)
(declare-fun A2 () Bool)
(declare-fun A3 () Bool)
(declare-fun A4 () Bool)
(declare-fun A5 () Bool)
(declare-fun A6 () Bool)
(declare-fun A7 () Bool)
(declare-fun A8 () Bool)
(declare-fun A9 () Bool)
(declare-fun A10 () Bool)
(declare-fun A11 () Bool)
(declare-fun A12 () Bool)
(declare-fun A13 () Bool)
(declare-fun A14 () Bool)
(declare-fun A15 () Bool)
(declare-fun A16 () Bool)
(declare-fun A17 () Bool)
(declare-fun A18 () Bool)
(declare-fun A19 () Bool)
(declare-fun A20 () Bool)
(declare-fun A21 () Bool)
(declare-fun A22 () Bool)
(declare-fun A23 () Bool)
(declare-fun A24 () Bool)
(assert (let ((.def_0 (not A12))) (let ((.def_1 (not A8))) (let ((.def_2 (and .def_1 .def_0))) (let ((.def_3 (not .def_2))) (let ((.def_4 (not A10))) (let ((.def_5 (and .def_4 A2))) (let ((.def_6 (and .def_5 .def_3))) (let ((.def_7 (not .def_6))) (let ((.def_8 (not A1))) (let ((.def_9 (or .def_8 A24))) (let ((.def_10 (not .def_9))) (let ((.def_11 (not A15))) (let ((.def_12 (not A9))) (let ((.def_13 (and .def_12 .def_11))) (let ((.def_14 (and .def_13 .def_10))) (let ((.def_15 (= .def_14 .def_7))) (let ((.def_16 (not A6))) (let ((.def_17 (and .def_16 A9))) (let ((.def_18 (and A0 A1))) (let ((.def_19 (or .def_18 .def_17))) (let ((.def_20 (or A2 A15))) (let ((.def_21 (not .def_20))) (let ((.def_22 (not A24))) (let ((.def_23 (and .def_22 A17))) (let ((.def_24 (and .def_23 .def_21))) (let ((.def_25 (not .def_24))) (let ((.def_26 (or .def_25 .def_19))) (let ((.def_27 (= .def_26 .def_15))) (let ((.def_28 (not .def_27))) (let ((.def_29 (not A3))) (let ((.def_30 (or A0 .def_29))) (let ((.def_31 (not .def_30))) (let ((.def_32 (and A24 A23))) (let ((.def_33 (not .def_32))) (let ((.def_34 (or .def_33 .def_31))) (let ((.def_35 (not .def_34))) (let ((.def_36 (not A23))) (let ((.def_37 (not A2))) (let ((.def_38 (or .def_37 .def_36))) (let ((.def_39 (and A9 .def_12))) (let ((.def_40 (not .def_39))) (let ((.def_41 (and .def_40 .def_38))) (let ((.def_42 (not .def_41))) (let ((.def_43 (and .def_42 .def_35))) (let ((.def_44 (not .def_43))) (let ((.def_45 (= .def_29 A8))) (let ((.def_46 (or A17 A2))) (let ((.def_47 (not .def_46))) (let ((.def_48 (or .def_47 .def_45))) (let ((.def_49 (or A21 A2))) (let ((.def_50 (not A0))) (let ((.def_51 (and A12 .def_50))) (let ((.def_52 (not .def_51))) (let ((.def_53 (and .def_52 .def_49))) (let ((.def_54 (or .def_53 .def_48))) (let ((.def_55 (= .def_54 .def_44))) (let ((.def_56 (and .def_55 .def_28))) (let ((.def_57 (not .def_56))) (let ((.def_58 (or A20 A18))) (let ((.def_59 (not .def_58))) (let ((.def_60 (not A7))) (let ((.def_61 (not A14))) (let ((.def_62 (or .def_61 .def_60))) (let ((.def_63 (not .def_62))) (let ((.def_64 (and .def_63 .def_59))) (let ((.def_65 (not A16))) (let ((.def_66 (not A18))) (let ((.def_67 (and .def_66 .def_65))) (let ((.def_68 (not .def_67))) (let ((.def_69 (or A23 A23))) (let ((.def_70 (and .def_69 .def_68))) (let ((.def_71 (and .def_70 .def_64))) (let ((.def_72 (or A16 A15))) (let ((.def_73 (not .def_72))) (let ((.def_74 (or .def_60 .def_12))) (let ((.def_75 (or .def_74 .def_73))) (let ((.def_76 (= .def_11 .def_22))) (let ((.def_77 (or A18 A2))) (let ((.def_78 (not .def_77))) (let ((.def_79 (and .def_78 .def_76))) (let ((.def_80 (and .def_79 .def_75))) (let ((.def_81 (and .def_80 .def_71))) (let ((.def_82 (not .def_81))) (let ((.def_83 (not A13))) (let ((.def_84 (or .def_83 A10))) (let ((.def_85 (not .def_84))) (let ((.def_86 (not A11))) (let ((.def_87 (or .def_86 .def_0))) (let ((.def_88 (not .def_87))) (let ((.def_89 (or .def_88 .def_85))) (let ((.def_90 (or A13 .def_29))) (let ((.def_91 (not A21))) (let ((.def_92 (and A9 .def_91))) (let ((.def_93 (not .def_92))) (let ((.def_94 (or .def_93 .def_90))) (let ((.def_95 (not .def_94))) (let ((.def_96 (and .def_95 .def_89))) (let ((.def_97 (not .def_96))) (let ((.def_98 (and A2 A4))) (let ((.def_99 (or A22 .def_66))) (let ((.def_100 (not .def_99))) (let ((.def_101 (= .def_100 .def_98))) (let ((.def_102 (not .def_101))) (let ((.def_103 (or A4 A5))) (let ((.def_104 (or A19 A23))) (let ((.def_105 (and .def_104 .def_103))) (let ((.def_106 (not .def_105))) (let ((.def_107 (and .def_106 .def_102))) (let ((.def_108 (and .def_107 .def_97))) (let ((.def_109 (= .def_108 .def_82))) (let ((.def_110 (and .def_109 .def_57))) (let ((.def_111 (not .def_110))) .def_111)))))))))))))))))))))))))))))))))))))))))))))))))))))))))))))))))))))))))))))))))))))))))))))))))))))))))))))))))
(check-sat)
